c description: Random 3-CNF over 16 variables and 68 clauses
c generator: CNFgen (0.9.2)
c copyright: (C) 2012-2022 Massimo Lauria <massimo.lauria@uniroma1.it>
c url: https://massimolauria.net/cnfgen
c command line: cnfgen --output CNF_4.28/16_bit_68_674.cnf randkcnf 3 16 68
c
p cnf 16 68
-2 -4 -8 0
-12 13 -15 0
-5 13 16 0
7 13 14 0
-2 -6 8 0
6 -8 -10 0
-1 -12 13 0
1 6 8 0
5 -12 -16 0
4 9 -13 0
-4 10 13 0
-1 -14 -16 0
-1 14 -16 0
-2 -5 9 0
2 -3 -15 0
-7 -14 -16 0
6 7 -9 0
5 10 11 0
1 -12 13 0
3 -13 14 0
3 9 16 0
-2 3 16 0
5 -7 9 0
1 4 16 0
6 -8 -16 0
-8 -9 15 0
-10 -11 14 0
-2 3 -15 0
-3 -4 13 0
4 9 15 0
-11 12 -14 0
-2 4 11 0
-2 -5 13 0
-1 3 -11 0
2 -6 16 0
1 5 -12 0
-6 12 13 0
-5 7 16 0
8 11 -16 0
6 9 13 0
-2 -8 -10 0
-11 -12 13 0
-8 -11 16 0
1 4 -14 0
-5 9 16 0
3 -12 13 0
-2 -3 13 0
-5 8 14 0
-6 10 -11 0
-1 -3 -5 0
4 13 -14 0
-1 11 -16 0
5 -8 -14 0
-1 9 15 0
3 8 12 0
3 -12 -13 0
-2 -9 14 0
4 -10 -13 0
1 7 11 0
-1 7 -16 0
6 -7 -15 0
-3 9 -15 0
-8 -12 -13 0
3 -11 -15 0
9 12 16 0
-5 9 13 0
-4 -11 15 0
-3 13 16 0
